\ LP format - for model browsing. Use MPS format to capture full model detail.
Minimize
  y
Subject To
 c1: x1 + 19 r1 <= 19
 c2: - y + y1 <= -20
 c3: x2 + 17 r2 <= 19
 c4: - y + y2 <= -18
 c5: x3 + 25 r3 <= 19
 c6: - y + y3 <= -26
 c7: x4 + 20 r4 <= 19
 c8: - y + y4 <= -21
 c9: x5 + 27 r5 <= 19
 c10: - y + y5 <= -28
 c11: x6 + 23 r6 <= 19
 c12: - y + y6 <= -24
 c13: x7 + 27 r7 <= 19
 c14: - y + y7 <= -28
 c15: x8 + 2.147483648e+09 r8 <= -2.147483628e+09
 c16: - y + y8 <= 0
 c17: x1 + 19 r1 - 165 p12 - 165 q12 - x2 <= -1
 c18: - 19 r1 + y1 - 165 p12 + 165 q12 - y2 <= 145
 c19: x1 - 165 p12 + 165 q12 - x2 - 19 r2 >= -164
 c20: y1 - 165 p12 - 165 q12 + 17 r2 - y2 >= -312
 c21: x1 + 19 r1 - 165 p13 - 165 q13 - x3 <= -1
 c22: - 19 r1 + y1 - 165 p13 + 165 q13 - y3 <= 145
 c23: x1 - 165 p13 + 165 q13 - x3 - 27 r3 >= -164
 c24: y1 - 165 p13 - 165 q13 + 25 r3 - y3 >= -304
 c25: x1 + 19 r1 - 165 p14 - 165 q14 - x4 <= -1
 c26: - 19 r1 + y1 - 165 p14 + 165 q14 - y4 <= 145
 c27: x1 - 165 p14 + 165 q14 - x4 - 22 r4 >= -164
 c28: y1 - 165 p14 - 165 q14 + 20 r4 - y4 >= -309
 c29: x1 + 19 r1 - 165 p15 - 165 q15 - x5 <= -1
 c30: - 19 r1 + y1 - 165 p15 + 165 q15 - y5 <= 145
 c31: x1 - 165 p15 + 165 q15 - x5 - 29 r5 >= -164
 c32: y1 - 165 p15 - 165 q15 + 27 r5 - y5 >= -302
 c33: x1 + 19 r1 - 165 p16 - 165 q16 - x6 <= -1
 c34: - 19 r1 + y1 - 165 p16 + 165 q16 - y6 <= 145
 c35: x1 - 165 p16 + 165 q16 - x6 - 25 r6 >= -164
 c36: y1 - 165 p16 - 165 q16 + 23 r6 - y6 >= -306
 c37: x1 + 19 r1 - 165 p17 - 165 q17 - x7 <= -1
 c38: - 19 r1 + y1 - 165 p17 + 165 q17 - y7 <= 145
 c39: x1 - 165 p17 + 165 q17 - x7 - 29 r7 >= -164
 c40: y1 - 165 p17 - 165 q17 + 27 r7 - y7 >= -302
 c41: x1 + 19 r1 - 165 p18 - 165 q18 - x8 <= -1
 c42: - 19 r1 + y1 - 165 p18 + 165 q18 - y8 <= 145
 c43: x1 - 165 p18 + 165 q18 - x8 + 2.147483648e+09 r8 >= 2.147483483e+09
 c44: y1 - 165 p18 - 165 q18 + 2.147483648e+09 r8 - y8 >= -330
 c45: x2 + 17 r2 - 165 p23 - 165 q23 - x3 <= -1
 c46: - 17 r2 + y2 - 165 p23 + 165 q23 - y3 <= 147
 c47: x2 - 165 p23 + 165 q23 - x3 - 27 r3 >= -164
 c48: y2 - 165 p23 - 165 q23 + 25 r3 - y3 >= -304
 c49: x2 + 17 r2 - 165 p24 - 165 q24 - x4 <= -1
 c50: - 17 r2 + y2 - 165 p24 + 165 q24 - y4 <= 147
 c51: x2 - 165 p24 + 165 q24 - x4 - 22 r4 >= -164
 c52: y2 - 165 p24 - 165 q24 + 20 r4 - y4 >= -309
 c53: x2 + 17 r2 - 165 p25 - 165 q25 - x5 <= -1
 c54: - 17 r2 + y2 - 165 p25 + 165 q25 - y5 <= 147
 c55: x2 - 165 p25 + 165 q25 - x5 - 29 r5 >= -164
 c56: y2 - 165 p25 - 165 q25 + 27 r5 - y5 >= -302
 c57: x2 + 17 r2 - 165 p26 - 165 q26 - x6 <= -1
 c58: - 17 r2 + y2 - 165 p26 + 165 q26 - y6 <= 147
 c59: x2 - 165 p26 + 165 q26 - x6 - 25 r6 >= -164
 c60: y2 - 165 p26 - 165 q26 + 23 r6 - y6 >= -306
 c61: x2 + 17 r2 - 165 p27 - 165 q27 - x7 <= -1
 c62: - 17 r2 + y2 - 165 p27 + 165 q27 - y7 <= 147
 c63: x2 - 165 p27 + 165 q27 - x7 - 29 r7 >= -164
 c64: y2 - 165 p27 - 165 q27 + 27 r7 - y7 >= -302
 c65: x2 + 17 r2 - 165 p28 - 165 q28 - x8 <= -1
 c66: - 17 r2 + y2 - 165 p28 + 165 q28 - y8 <= 147
 c67: x2 - 165 p28 + 165 q28 - x8 + 2.147483648e+09 r8 >= 2.147483483e+09
 c68: y2 - 165 p28 - 165 q28 + 2.147483648e+09 r8 - y8 >= -330
 c69: x3 + 25 r3 - 165 p34 - 165 q34 - x4 <= -1
 c70: - 25 r3 + y3 - 165 p34 + 165 q34 - y4 <= 139
 c71: x3 - 165 p34 + 165 q34 - x4 - 22 r4 >= -164
 c72: y3 - 165 p34 - 165 q34 + 20 r4 - y4 >= -309
 c73: x3 + 25 r3 - 165 p35 - 165 q35 - x5 <= -1
 c74: - 25 r3 + y3 - 165 p35 + 165 q35 - y5 <= 139
 c75: x3 - 165 p35 + 165 q35 - x5 - 29 r5 >= -164
 c76: y3 - 165 p35 - 165 q35 + 27 r5 - y5 >= -302
 c77: x3 + 25 r3 - 165 p36 - 165 q36 - x6 <= -1
 c78: - 25 r3 + y3 - 165 p36 + 165 q36 - y6 <= 139
 c79: x3 - 165 p36 + 165 q36 - x6 - 25 r6 >= -164
 c80: y3 - 165 p36 - 165 q36 + 23 r6 - y6 >= -306
 c81: x3 + 25 r3 - 165 p37 - 165 q37 - x7 <= -1
 c82: - 25 r3 + y3 - 165 p37 + 165 q37 - y7 <= 139
 c83: x3 - 165 p37 + 165 q37 - x7 - 29 r7 >= -164
 c84: y3 - 165 p37 - 165 q37 + 27 r7 - y7 >= -302
 c85: x3 + 25 r3 - 165 p38 - 165 q38 - x8 <= -1
 c86: - 25 r3 + y3 - 165 p38 + 165 q38 - y8 <= 139
 c87: x3 - 165 p38 + 165 q38 - x8 + 2.147483648e+09 r8 >= 2.147483483e+09
 c88: y3 - 165 p38 - 165 q38 + 2.147483648e+09 r8 - y8 >= -330
 c89: x4 + 20 r4 - 165 p45 - 165 q45 - x5 <= -1
 c90: - 20 r4 + y4 - 165 p45 + 165 q45 - y5 <= 144
 c91: x4 - 165 p45 + 165 q45 - x5 - 29 r5 >= -164
 c92: y4 - 165 p45 - 165 q45 + 27 r5 - y5 >= -302
 c93: x4 + 20 r4 - 165 p46 - 165 q46 - x6 <= -1
 c94: - 20 r4 + y4 - 165 p46 + 165 q46 - y6 <= 144
 c95: x4 - 165 p46 + 165 q46 - x6 - 25 r6 >= -164
 c96: y4 - 165 p46 - 165 q46 + 23 r6 - y6 >= -306
 c97: x4 + 20 r4 - 165 p47 - 165 q47 - x7 <= -1
 c98: - 20 r4 + y4 - 165 p47 + 165 q47 - y7 <= 144
 c99: x4 - 165 p47 + 165 q47 - x7 - 29 r7 >= -164
 c100: y4 - 165 p47 - 165 q47 + 27 r7 - y7 >= -302
 c101: x4 + 20 r4 - 165 p48 - 165 q48 - x8 <= -1
 c102: - 20 r4 + y4 - 165 p48 + 165 q48 - y8 <= 144
 c103: x4 - 165 p48 + 165 q48 - x8 + 2.147483648e+09 r8 >= 2.147483483e+09
 c104: y4 - 165 p48 - 165 q48 + 2.147483648e+09 r8 - y8 >= -330
 c105: x5 + 27 r5 - 165 p56 - 165 q56 - x6 <= -1
 c106: - 27 r5 + y5 - 165 p56 + 165 q56 - y6 <= 137
 c107: x5 - 165 p56 + 165 q56 - x6 - 25 r6 >= -164
 c108: y5 - 165 p56 - 165 q56 + 23 r6 - y6 >= -306
 c109: x5 + 27 r5 - 165 p57 - 165 q57 - x7 <= -1
 c110: - 27 r5 + y5 - 165 p57 + 165 q57 - y7 <= 137
 c111: x5 - 165 p57 + 165 q57 - x7 - 29 r7 >= -164
 c112: y5 - 165 p57 - 165 q57 + 27 r7 - y7 >= -302
 c113: x5 + 27 r5 - 165 p58 - 165 q58 - x8 <= -1
 c114: - 27 r5 + y5 - 165 p58 + 165 q58 - y8 <= 137
 c115: x5 - 165 p58 + 165 q58 - x8 + 2.147483648e+09 r8 >= 2.147483483e+09
 c116: y5 - 165 p58 - 165 q58 + 2.147483648e+09 r8 - y8 >= -330
 c117: x6 + 23 r6 - 165 p67 - 165 q67 - x7 <= -1
 c118: - 23 r6 + y6 - 165 p67 + 165 q67 - y7 <= 141
 c119: x6 - 165 p67 + 165 q67 - x7 - 29 r7 >= -164
 c120: y6 - 165 p67 - 165 q67 + 27 r7 - y7 >= -302
 c121: x6 + 23 r6 - 165 p68 - 165 q68 - x8 <= -1
 c122: - 23 r6 + y6 - 165 p68 + 165 q68 - y8 <= 141
 c123: x6 - 165 p68 + 165 q68 - x8 + 2.147483648e+09 r8 >= 2.147483483e+09
 c124: y6 - 165 p68 - 165 q68 + 2.147483648e+09 r8 - y8 >= -330
 c125: x7 + 27 r7 - 165 p78 - 165 q78 - x8 <= -1
 c126: - 27 r7 + y7 - 165 p78 + 165 q78 - y8 <= 137
 c127: x7 - 165 p78 + 165 q78 - x8 + 2.147483648e+09 r8 >= 2.147483483e+09
 c128: y7 - 165 p78 - 165 q78 + 2.147483648e+09 r8 - y8 >= -330
Bounds
 r1 <= 1
 p12 <= 1
 q12 <= 1
 p13 <= 1
 q13 <= 1
 p14 <= 1
 q14 <= 1
 p15 <= 1
 q15 <= 1
 p16 <= 1
 q16 <= 1
 p17 <= 1
 q17 <= 1
 p18 <= 1
 q18 <= 1
 r2 <= 1
 p23 <= 1
 q23 <= 1
 p24 <= 1
 q24 <= 1
 p25 <= 1
 q25 <= 1
 p26 <= 1
 q26 <= 1
 p27 <= 1
 q27 <= 1
 p28 <= 1
 q28 <= 1
 r3 <= 1
 p34 <= 1
 q34 <= 1
 p35 <= 1
 q35 <= 1
 p36 <= 1
 q36 <= 1
 p37 <= 1
 q37 <= 1
 p38 <= 1
 q38 <= 1
 r4 <= 1
 p45 <= 1
 q45 <= 1
 p46 <= 1
 q46 <= 1
 p47 <= 1
 q47 <= 1
 p48 <= 1
 q48 <= 1
 r5 <= 1
 p56 <= 1
 q56 <= 1
 p57 <= 1
 q57 <= 1
 p58 <= 1
 q58 <= 1
 r6 <= 1
 p67 <= 1
 q67 <= 1
 p68 <= 1
 q68 <= 1
 r7 <= 1
 p78 <= 1
 q78 <= 1
 r8 <= 1
Generals
 x1 r1 y1 p12 q12 p13 q13 p14 q14 p15 q15 p16 q16 p17 q17 p18 q18 x2 r2 y2
 p23 q23 p24 q24 p25 q25 p26 q26 p27 q27 p28 q28 x3 r3 y3 p34 q34 p35 q35
 p36 q36 p37 q37 p38 q38 x4 r4 y4 p45 q45 p46 q46 p47 q47 p48 q48 x5 r5 y5
 p56 q56 p57 q57 p58 q58 x6 r6 y6 p67 q67 p68 q68 x7 r7 y7 p78 q78 x8 r8 y8
End
